1:
 ([32, 43, 39, 17, 29, 23, 6, 28, 20, 27, 8, 11, 21, 31, 37, 15, 45, 14, 34, 36, 33, 30, 22, 7, 40, 18, 12, 44, 9, 38, 16, 35, 13, 5, 3, 26, 4, 1, 24, 2, 19, 41, 10, 25, 42], -205.47, [[-3, 32, 43, 39, 17, 29, 23, 6, 28, 20, 27, -3], [-4, 8, 11, 21, -4], [0, 31, 37, 15, 45, 0], [-3, 14, -3], [0, 34, 36, 33, 30, 22, 7, 0], [0, 40, 18, 12, 44, 9, 38, 16, 0], [-4, 35, 13, 5, 3, 26, 4, 1, 24, 2, 19, 41, -4], [-3, 10, 25, 42, -3]], [75, 75, 50, 50, 75, 75, 75, 75], [12, 9, 9, 6, 11, 11, 13, 1])
 [-268.51, -267.24, -258.7, -243.25, -242.63, -230.67, -227.12, -226.24, -223.08, -218.54, -215.89, -212.52, -205.47]

2:
 ([1, 45, 39, 23, 35, 13, 37, 15, 6, 43, 25, 4, 26, 20, 38, 3, 36, 14, 41, 10, 8, 7, 29, 24, 30, 12, 9, 42, 44, 11, 33, 21, 2, 31, 27, 5, 17, 19, 34, 22, 40, 16, 32, 28, 18], -214.19, [[-4, 1, 45, 39, 23, 35, 13, 37, 15, 6, 43, -4], [0, 25, 4, 26, 20, 38, 3, 36, 14, 41, 10, 8, 7, 29, 24, 30, 12, 9, 0], [-3, 42, 44, 11, 33, 21, -3], [-3, 2, -3], [0, 31, 0], [-4, 27, -4], [-1, 5, 17, 19, 34, 22, 40, 16, -1], [-3, 32, 28, 18, -3]], [75, 75, 75, 40, 40, 40, 75, 75], [10, 3, 9, 4, 6, 5, 12, 15])
 [-266.9, -248.18, -242.87, -232.75, -225.15, -219.97, -216.96, -214.19]

3:
 ([24, 19, 8, 29, 31, 44, 40, 23, 10, 32, 18, 13, 9, 5, 33, 16, 12, 17, 6, 2, 11, 22, 30, 15, 3, 36, 14, 39, 21, 43, 28, 20, 38, 1, 7, 34, 27, 41, 35, 37, 42, 25, 26, 4, 45], -210.68, [[-2, 24, 19, 8, 29, 31, 44, 40, 23, 10, 32, 18, 13, -2], [-1, 9, 5, 33, -1], [-3, 16, 12, 17, 6, 2, 11, 22, -3], [-3, 30, 15, 3, -3], [-4, 36, 14, 39, -4], [-4, 21, 43, 28, 20, 38, 1, 7, 34, -4], [-4, 27, 41, 35, 37, 42, -4], [0, 25, 26, 4, 45, 0]], [75, 75, 75, 40, 50, 75, 40, 75], [9, 14, 14, 6, 7, 11, 6, 5])
 [-254.5, -238.3, -229.38, -223.72, -219.12, -212.6, -210.68]

4:
 ([6, 15, 39, 26, 43, 7, 32, 42, 34, 21, 25, 12, 30, 22, 44, 3, 35, 16, 36, 19, 38, 31, 2, 40, 14, 41, 17, 33, 24, 18, 27, 28, 1, 11, 37, 45, 8, 29, 4, 20, 5, 9, 10, 23, 13], -216.84, [[-2, 6, 15, 39, 26, 43, 7, -2], [-3, 32, 42, -3], [0, 34, 21, 25, 12, 30, 22, 44, 3, 35, 16, 36, 0], [-3, 19, 38, 31, 2, -3], [0, 40, 14, 41, 17, 33, 24, 18, 0], [-4, 27, 28, 1, 11, 37, -4], [-1, 45, 8, 29, -1], [-1, 4, 20, 5, 9, 10, 23, 13, -1]], [75, 50, 75, 75, 75, 75, 40, 75], [13, 6, 12, 14, 13, 13, 6, 0])
 [-299.18, -239.54, -232.56, -231.99, -231.5, -221.49, -216.84]

5:
 ([39, 23, 14, 6, 31, 11, 26, 40, 7, 35, 36, 3, 4, 9, 1, 22, 37, 34, 18, 13, 19, 32, 42, 33, 45, 10, 5, 29, 15, 28, 20, 30, 17, 21, 38, 27, 43, 25, 16, 44, 24, 2, 41, 8, 12], -210.98, [[-4, 39, 23, 14, 6, -4], [0, 31, 0], [-1, 11, 26, 40, -1], [0, 7, 35, 36, 3, 4, 9, 1, 22, 37, 34, 18, 13, 0], [-3, 19, 32, -3], [-3, 42, 33, 45, 10, 5, 29, 15, -3], [-1, 28, 20, 30, 17, 21, 38, 27, 43, -1], [0, 25, 16, 44, 24, 2, 41, 8, 12, 0]], [75, 40, 40, 75, 40, 75, 75, 75], [11, 6, 6, 8, 7, 9, 12, 11])
 [-267.18, -242.7, -236.16, -235.85, -233.38, -228.58, -226.86, -226.15, -220.47, -214.64, -210.98]

6:
 ([9, 37, 30, 17, 16, 38, 14, 12, 18, 10, 6, 21, 8, 5, 19, 32, 34, 29, 39, 43, 13, 24, 27, 15, 4, 20, 45, 22, 33, 26, 11, 2, 31, 40, 36, 35, 28, 7, 25, 3, 23, 41, 1, 44, 42], -210.13, [[-1, 9, 37, 30, 17, 16, 38, -1], [-3, 14, 12, 18, 10, 6, 21, -3], [-4, 8, 5, 19, 32, -4], [0, 34, 29, 39, 43, 13, 24, 27, 0], [-1, 15, 4, -1], [-2, 20, 45, 22, 33, 26, 11, 2, -2], [0, 31, 40, 36, 35, 0], [-1, 28, 7, -1], [0, 25, 3, 23, 41, 1, 0], [-2, 44, 42, -2]], [75, 75, 75, 75, 50, 75, 75, 50, 40, 75], [12, 12, 14, 12, 1, 4, 8, 8, 6, 0])
 [-253.36, -247.48, -245.35, -245.24, -235.05, -222.34, -220.84, -220.0, -210.13]

7:
 ([33, 10, 11, 19, 15, 37, 35, 23, 36, 40, 25, 3, 7, 28, 8, 13, 44, 27, 32, 41, 14, 29, 5, 43, 21, 17, 31, 6, 20, 42, 16, 38, 39, 34, 1, 18, 45, 22, 30, 12, 9, 24, 2, 26, 4], -207.6, [[-3, 33, 10, 11, 19, 15, 37, 35, 23, 36, 40, 25, 3, -3], [0, 7, 28, 8, 13, 44, 0], [-4, 27, 32, 41, 14, 29, 5, 43, -4], [-4, 21, 17, 31, 6, 20, -4], [-3, 42, 16, 38, 39, -3], [0, 34, 1, 18, 0], [-1, 45, 22, 30, 12, 9, 24, 2, 26, 4, -1]], [75, 75, 75, 75, 75, 40, 75], [11, 12, 14, 14, 10, 8, 9])
 [-251.23, -248.51, -238.35, -235.16, -229.07, -220.72, -220.12, -207.6]

8:
 ([3, 34, 35, 5, 33, 17, 41, 28, 24, 2, 4, 14, 20, 38, 16, 26, 37, 9, 12, 19, 23, 42, 32, 25, 40, 1, 22, 39, 15, 11, 6, 10, 45, 30, 8, 18, 31, 44, 7, 13, 43, 21, 36, 29, 27], -197.44, [[-3, 3, 34, 35, 5, -3], [-3, 33, 17, 41, 28, 24, 2, 4, 14, 20, 38, 16, -3], [-4, 26, 37, 9, 12, 19, 23, 42, 32, 25, -4], [0, 40, 1, 22, 39, 15, 11, 6, 0], [-3, 10, 45, 30, 8, 18, -3], [0, 31, 44, 7, 13, 43, 21, 36, 29, 27, 0]], [75, 75, 75, 75, 75, 75], [15, 14, 13, 5, 8, 9])
 [-277.32, -244.25, -233.16, -227.2, -223.99, -222.87, -212.85, -209.75, -206.02, -197.44]

9:
 ([7, 13, 34, 21, 23, 40, 36, 14, 4, 45, 24, 20, 3, 35, 15, 26, 33, 9, 8, 31, 39, 29, 32, 17, 38, 16, 10, 11, 18, 22, 30, 43, 28, 41, 1, 27, 37, 2, 44, 5, 19, 42, 6, 12, 25], -205.01, [[0, 7, 13, 34, 21, 23, 40, 0], [-4, 36, 14, 4, 45, 24, 20, 3, 35, 15, 26, -4], [-3, 33, 9, -3], [-4, 8, -4], [0, 31, 39, 29, 32, 17, 38, 16, 10, 11, 0], [0, 18, 22, 30, 43, 28, 41, 1, 27, 37, 0], [-3, 2, 44, 5, 19, -3], [-3, 42, 6, 12, 25, -3]], [75, 50, 50, 40, 75, 75, 50, 50], [11, 6, 10, 3, 13, 9, 8, 8])
 [-250.81, -239.78, -234.66, -225.07, -215.56, -205.01]

10:
 ([6, 18, 13, 20, 30, 2, 23, 43, 25, 8, 11, 26, 45, 15, 17, 24, 9, 4, 28, 10, 27, 16, 42, 35, 3, 31, 12, 37, 33, 36, 40, 34, 39, 5, 19, 38, 22, 1, 44, 32, 14, 29, 7, 41, 21], -212.05, [[-2, 6, 18, 13, 20, 30, 2, 23, 43, 25, -2], [-4, 8, 11, 26, 45, 15, 17, 24, -4], [-1, 9, 4, 28, 10, 27, -1], [-3, 16, 42, 35, 3, -3], [0, 31, 12, 37, 33, 36, 40, 34, 0], [-4, 39, 5, 19, 38, 22, 1, 44, 32, 14, 29, 7, 41, 21, -4]], [75, 75, 75, 75, 75, 75], [12, 12, 9, 12, 12, 10])
 [-293.52, -274.47, -257.53, -241.37, -240.2, -236.8, -230.13, -228.96, -228.35, -224.55, -215.28, -212.05]

11:
 ([19, 41, 32, 22, 13, 24, 6, 2, 7, 1, 34, 5, 8, 40, 29, 45, 14, 31, 27, 21, 43, 35, 36, 3, 33, 11, 12, 15, 37, 20, 10, 18, 4, 26, 28, 9, 30, 42, 16, 38, 44, 25, 17, 39, 23], -215.24, [[-3, 19, 41, 32, 22, 13, 24, -3], [-2, 6, 2, 7, 1, -2], [0, 34, 0], [-1, 5, 8, 40, 29, 45, -1], [-3, 14, -3], [0, 31, 27, 21, 43, 0], [-4, 35, 36, 3, 33, 11, 12, 15, 37, 20, -4], [-3, 10, 18, 4, 26, 28, -3], [-1, 9, 30, 42, -1], [-3, 16, 38, 44, 25, 17, 39, 23, -3]], [40, 75, 40, 50, 40, 75, 75, 75, 75, 75], [5, 11, 6, 8, 6, 15, 11, 4, 10, 7])
 [-240.27, -236.77, -221.89, -219.41, -215.24]

12:
 ([27, 35, 30, 23, 9, 37, 22, 33, 11, 38, 12, 36, 40, 1, 34, 31, 20, 28, 43, 26, 44, 32, 24, 19, 17, 10, 45, 3, 25, 39, 29, 14, 21, 4, 13, 6, 41, 16, 42, 2, 8, 5, 15, 18, 7], -215.68, [[-4, 27, 35, 30, 23, 9, 37, 22, 33, 11, 38, 12, -4], [-4, 36, 40, 1, 34, 31, 20, -4], [-1, 28, 43, -1], [-4, 26, 44, 32, 24, 19, 17, 10, 45, 3, 25, -4], [-4, 39, 29, 14, 21, 4, 13, 6, 41, -4], [-3, 16, 42, 2, -3], [-4, 8, 5, 15, 18, 7, -4]], [75, 75, 40, 75, 75, 75, 75], [13, 10, 8, 11, 9, 11, 13])
 [-280.06, -272.93, -270.01, -268.02, -242.2, -238.46, -225.76, -221.17, -220.58, -216.69, -215.68]

13:
 ([30, 33, 34, 40, 12, 23, 39, 25, 22, 31, 8, 18, 16, 19, 2, 5, 24, 9, 44, 4, 20, 27, 41, 6, 32, 10, 29, 45, 15, 3, 28, 1, 11, 14, 21, 17, 13, 7, 36, 42, 35, 38, 43, 26, 37], -213.02, [[-3, 30, 33, 34, -3], [0, 40, 12, 23, 39, 25, 22, 31, 0], [-4, 8, 18, -4], [-3, 16, -3], [-3, 19, 2, -3], [-1, 5, 24, 9, 44, 4, 20, 27, 41, 6, 32, -1], [-3, 10, 29, 45, 15, 3, -3], [-1, 28, 1, 11, -1], [-3, 14, 21, 17, 13, 7, 36, -3], [-3, 42, 35, 38, 43, 26, 37, -3]], [75, 50, 50, 40, 40, 75, 50, 40, 75, 75], [12, 1, 7, 5, 7, 11, 0, 8, 10, 8])
 [-276.7, -250.66, -244.75, -242.06, -241.23, -229.85, -214.54, -213.02]

14:
 ([41, 27, 21, 32, 25, 14, 20, 37, 31, 40, 36, 7, 18, 8, 33, 9, 19, 11, 3, 5, 39, 43, 12, 1, 26, 6, 4, 10, 45, 42, 30, 15, 34, 22, 44, 17, 29, 2, 38, 23, 35, 13, 24, 16, 28], -203.85, [[-4, 41, 27, 21, 32, 25, -4], [-3, 14, 20, 37, 31, 40, 36, 7, 18, -3], [-4, 8, 33, 9, -4], [-3, 19, 11, 3, 5, -3], [-4, 39, 43, 12, 1, 26, 6, 4, 10, 45, 42, 30, 15, -4], [0, 34, 22, 44, 17, 29, 2, 38, 23, 35, 0], [-2, 13, 24, 16, -2], [-1, 28, -1]], [75, 75, 75, 75, 75, 75, 75, 40], [13, 10, 13, 13, 6, 6, 7, 7])
 [-274.15, -235.27, -231.09, -228.37, -214.03, -212.1, -203.85]

15:
 ([8, 33, 11, 1, 23, 15, 36, 19, 3, 34, 16, 6, 5, 25, 28, 12, 22, 40, 41, 30, 7, 44, 38, 32, 14, 31, 27, 43, 20, 29, 21, 45, 35, 42, 18, 4, 26, 37, 9, 10, 39, 24, 17, 2, 13], -213.35, [[-4, 8, 33, 11, 1, 23, 15, 36, 19, 3, -4], [0, 34, 0], [-3, 16, 6, 5, -3], [0, 25, 28, 12, 22, 40, 41, 30, 7, 44, 38, 32, 0], [-3, 14, -3], [0, 31, 0], [-4, 27, 43, 20, 29, 21, 45, 35, 42, -4], [0, 18, 4, 26, 37, 9, 10, 39, 24, 17, 2, 13, 0]], [75, 50, 75, 75, 40, 50, 75, 75], [11, 6, 15, 10, 6, 6, 6, 9])
 [-254.62, -248.6, -231.03, -230.28, -229.73, -219.5, -216.05, -213.35]

16:
 ([19, 27, 13, 10, 29, 34, 21, 18, 17, 37, 16, 40, 6, 5, 26, 24, 9, 3, 23, 38, 11, 33, 44, 8, 39, 7, 4, 15, 20, 42, 14, 36, 35, 1, 41, 22, 25, 28, 45, 32, 31, 30, 2, 43, 12], -209.76, [[-3, 19, 27, 13, 10, 29, 34, 21, -3], [0, 18, 17, 37, 16, 40, 0], [-2, 6, 5, 26, 24, -2], [-1, 9, 3, 23, 38, 11, 33, 44, 8, -1], [-4, 39, 7, 4, 15, 20, 42, 14, 36, 35, 1, 41, -4], [-3, 22, 25, 28, 45, -3], [-3, 32, 31, 30, -3], [-3, 2, 43, 12, -3]], [75, 75, 75, 75, 75, 75, 75, 50], [10, 8, 13, 14, 3, 7, 12, 5])
 [-264.37, -241.57, -239.73, -231.19, -228.39, -216.75, -209.76]

17:
 ([23, 37, 2, 43, 30, 18, 7, 36, 35, 28, 33, 17, 39, 16, 5, 9, 42, 32, 1, 15, 12, 11, 19, 40, 22, 45, 25, 41, 24, 29, 21, 38, 8, 14, 4, 6, 44, 3, 31, 26, 20, 34, 13, 10, 27], -209.09, [[-4, 23, 37, 2, 43, 30, -4], [0, 18, 7, 36, 35, 28, 0], [-3, 33, 17, 39, 16, 5, -3], [-1, 9, -1], [-3, 42, 32, 1, 15, 12, 11, 19, 40, 22, 45, 25, 41, 24, 29, 21, 38, -3], [-4, 8, -4], [-3, 14, 4, 6, 44, 3, -3], [0, 31, 26, 20, 34, 13, 10, 27, 0]], [50, 75, 75, 40, 75, 40, 40, 75], [3, 13, 14, 6, 9, 3, 7, 10])
 [-270.6, -248.02, -244.68, -228.47, -212.52, -209.09]

18:
 ([4, 14, 21, 32, 26, 45, 30, 15, 35, 41, 17, 23, 38, 39, 25, 33, 5, 29, 1, 34, 11, 19, 44, 3, 22, 16, 8, 18, 6, 36, 10, 42, 13, 7, 9, 27, 12, 2, 24, 28, 43, 31, 40, 20, 37], -216.47, [[-1, 4, 14, 21, 32, -1], [-4, 26, 45, 30, 15, -4], [-4, 35, 41, 17, 23, 38, 39, 25, 33, 5, 29, 1, 34, -4], [-1, 11, 19, 44, 3, 22, 16, 8, 18, -1], [-2, 6, 36, 10, 42, -2], [-2, 13, 7, 9, -2], [-4, 27, 12, 2, 24, 28, 43, -4], [0, 31, 0], [0, 40, 20, 37, 0]], [75, 50, 75, 75, 50, 75, 75, 40, 50], [8, 8, 10, 12, 6, 8, 15, 6, 1])
 [-263.85, -252.27, -249.96, -244.32, -240.66, -232.99, -218.48, -217.31, -216.47]

19:
 ([31, 34, 25, 36, 15, 6, 28, 38, 1, 13, 10, 19, 9, 5, 17, 32, 14, 16, 37, 18, 40, 29, 33, 39, 43, 26, 4, 8, 42, 7, 21, 20, 41, 24, 3, 2, 45, 35, 23, 44, 30, 11, 27, 12, 22], -192.31, [[0, 31, 34, 25, 0], [-4, 36, 15, 6, -4], [-1, 28, 38, 1, 13, 10, 19, -1], [-1, 9, -1], [-1, 5, 17, 32, -1], [-3, 14, 16, 37, 18, -3], [0, 40, 29, 33, 39, 43, 26, 4, 8, 42, 7, 0], [-4, 21, 20, 41, 24, 3, 2, 45, 35, 23, 44, 30, 11, -4], [-4, 27, 12, -4], [-3, 22, -3]], [75, 75, 75, 40, 40, 75, 75, 75, 40, 75], [15, 6, 8, 6, 7, 14, 7, 8, 5, 0])
 [-279.09, -260.56, -260.36, -223.3, -217.73, -212.68, -192.31]

20:
 ([2, 32, 22, 23, 8, 42, 29, 38, 43, 45, 19, 1, 13, 27, 10, 41, 7, 25, 12, 39, 35, 30, 6, 5, 31, 11, 26, 18, 40, 28, 36, 15, 34, 4, 9, 37, 14, 21, 16, 24, 33, 17, 20, 44, 3], -220.2, [[-3, 2, 32, 22, -3], [-4, 23, 8, 42, 29, 38, 43, 45, -4], [-3, 19, 1, 13, 27, 10, 41, -3], [0, 7, 25, 12, 39, 35, 30, 0], [-2, 6, 5, -2], [0, 31, 11, 26, 18, 0], [0, 40, 28, 36, 15, 0], [0, 34, 4, 9, 37, 0], [-3, 14, 21, 16, -3], [-2, 24, 33, 17, 20, 44, 3, -2]], [40, 50, 50, 75, 75, 75, 75, 40, 75, 75], [8, 3, 7, 7, 10, 15, 8, 7, 14, 5])
 [-245.49, -237.56, -235.34, -233.77, -231.92, -230.36, -226.67, -220.2]

